\ This file has been generated by DOcplex
\ ENCODING=ISO-8859-1
\Problem name: Orandom21842_6.lp

Minimize
 obj: - 32.000011525468 x0 - 16.000005762734 x1 - 8.000002881367 x2
      - 32.000011525468 x3 - 16.000005762734 x4 - 8.000002881367 x5 + [
      112.000006585982 x0^2 + 112.000006585982 x0*x1 + 56.000003292991 x0*x2
      + 32.000013171964 x0*x3 + 16.000006585982 x0*x4 + 8.000003292991 x0*x5
      + 28.000001646495 x1^2 + 28.000001646495 x1*x2 + 16.000006585982 x1*x3
      + 8.000003292991 x1*x4 + 4.000001646495 x1*x5 + 7.000000411624 x2^2
      + 8.000003292991 x2*x3 + 4.000001646495 x2*x4 + 2.000000823248 x2*x5
      + 16.000006585982 x3^2 + 16.000006585982 x3*x4 + 8.000003292991 x3*x5
      + 4.000001646495 x4^2 + 4.000001646495 x4*x5 + 1.000000411624 x5^2 ]/2 +
      24.500010084785
Subject To

Bounds
 0 <= x0 <= 1
 0 <= x1 <= 1
 0 <= x2 <= 1
 0 <= x3 <= 1
 0 <= x4 <= 1
 0 <= x5 <= 1

Binaries
 x0 x1 x2 x3 x4 x5
End
